Route #1: 21
Route #2: 83 8
Route #3: 74 105 110 14 39
Route #4: 29 9
Route #5: 7 11
Route #6: 13 124 6
Route #7: 121 12 17
Route #8: 3 22 96 132 73
Route #9: 71 84 2 112 55 93 138 68 63 33
Route #10: 149 15 5 141
Route #11: 36 69 58 26 75 115 82 64 104 57 53
Route #12: 30 28 109 145
Route #13: 31 126 122 10
Route #14: 139 23 60 86 99 92 150 67 79 136 123 113
Route #15: 102 87 47 40 1 89 66 144 41 88
Route #16: 42 25 95
Route #17: 107 120 78 61 101 62 27 34
Route #18: 48 77 135 81 72 20 103 52 37 90
Route #19: 117 45 148 98 50 85 76 18 114 44 54 142 128
Route #20: 38 134 94 108 46 133 19 116 152
Route #21: 129 49 80 24 32 35 106 125 111 131 65 147
Route #22: 143 16 146 130
Route #23: 127 97 118 151 43 56 4 51 59 70 100 137 91 119 140
Cost 21225.000000